cases/matpower/case3_tnep.m
ipopt
QCRM
[info | PowerModels]: extending matpower format with data: ne_branch 3x15
[info | PowerModels]: removing 3 cost terms from generator 3: Float64[]

******************************************************************************
This program contains Ipopt, a library for large-scale nonlinear optimization.
 Ipopt is released as open source code under the Eclipse Public License (EPL).
         For more information visit http://projects.coin-or.org/Ipopt
******************************************************************************

This is Ipopt version 3.13.2, running with linear solver mumps.
NOTE: Other linear solvers might be more efficient (see Ipopt documentation).

Number of nonzeros in equality constraint Jacobian...:       34
Number of nonzeros in inequality constraint Jacobian.:       73
Number of nonzeros in Lagrangian Hessian.............:       13

Total number of variables............................:       25
                     variables with only lower bounds:        0
                variables with lower and upper bounds:       22
                     variables with only upper bounds:        0
Total number of equality constraints.................:       13
Total number of inequality constraints...............:       29
        inequality constraints with only lower bounds:       14
   inequality constraints with lower and upper bounds:        0
        inequality constraints with only upper bounds:       15

iter    objective    inf_pr   inf_du lg(mu)  ||d||  lg(rg) alpha_du alpha_pr  ls
   0  6.3949934e+00 1.09e+00 1.04e+02  -1.0 0.00e+00    -  0.00e+00 0.00e+00   0
   1  2.0664426e+02 9.50e-01 7.06e+01  -1.0 1.28e+00  -2.0 8.35e-03 1.87e-01h  1
   2  3.7729370e+02 9.50e-01 6.19e+01  -1.0 1.09e+00  -1.6 3.17e-01 1.23e-01h  1
   3  2.7687321e+03 9.50e-01 3.23e+00  -1.0 9.51e-01  -1.1 7.52e-01 9.55e-01h  1
   4  2.9373897e+03 9.50e-01 6.99e+00  -1.0 7.48e-02  -1.6 6.63e-01 1.00e+00h  1
   5  2.9367598e+03 9.50e-01 1.45e-01  -1.0 2.49e-02  -2.1 9.90e-01 1.00e+00h  1
   6  2.9368005e+03 9.50e-01 2.05e-04  -1.0 1.04e-03  -2.6 1.00e+00 1.00e+00h  1
   7  2.9359453e+03 9.50e-01 2.73e+00  -1.7 2.37e-02  -3.1 1.00e+00 8.58e-01h  1
   8  2.9359320e+03 9.50e-01 9.91e-02  -1.7 2.66e-02  -3.5 1.00e+00 1.00e+00h  1
   9  2.9359092e+03 9.50e-01 6.39e-04  -1.7 3.88e-03  -4.0 1.00e+00 1.00e+00h  1
iter    objective    inf_pr   inf_du lg(mu)  ||d||  lg(rg) alpha_du alpha_pr  ls
  10  2.9359096e+03 9.50e-01 4.04e-07  -1.7 7.96e-05  -4.5 1.00e+00 1.00e+00s 22
  11r 2.9359096e+03 9.50e-01 9.99e+02  -0.0 0.00e+00  -5.0 0.00e+00 0.00e+00R  1
  12r 2.9370805e+03 9.50e-01 9.77e+02  -0.0 2.69e+00    -  2.13e-01 2.17e-02f  2
  13r 3.1491329e+03 9.50e-01 8.39e+02  -0.0 2.46e+00    -  3.27e-02 1.41e-01f  1
  14r 3.1414806e+03 9.50e-01 5.40e+02  -0.0 1.30e-01   2.0 1.00e+00 3.56e-01f  1
  15r 3.0747178e+03 9.50e-01 4.18e+00  -0.0 6.90e-02    -  1.00e+00 1.00e+00f  1
  16r 3.0528134e+03 9.50e-01 1.72e+01  -1.4 2.66e-02    -  9.83e-01 8.68e-01f  1
  17r 3.0197903e+03 9.50e-01 1.89e-01  -1.4 3.99e-02    -  1.00e+00 1.00e+00f  1
  18r 2.9822407e+03 9.50e-01 6.60e-01  -3.2 5.92e-02    -  8.99e-01 1.00e+00f  1
  19r 2.9684407e+03 9.50e-01 5.71e-04  -3.2 3.01e-02    -  1.00e+00 1.00e+00h  1
iter    objective    inf_pr   inf_du lg(mu)  ||d||  lg(rg) alpha_du alpha_pr  ls
  20r 2.9508039e+03 9.50e-01 1.54e-02  -4.8 5.87e-02    -  8.79e-01 1.00e+00h  1
  21r 2.9484294e+03 9.50e-01 1.65e-05  -4.8 2.03e-02    -  1.00e+00 1.00e+00h  1
  22r 2.9426179e+03 9.50e-01 7.73e-04  -7.2 7.53e-02    -  7.77e-01 1.00e+00h  1
  23r 2.9422465e+03 9.50e-01 5.79e-07  -7.2 7.76e-03    -  1.00e+00 1.00e+00h  1
  24r 2.9390793e+03 9.50e-01 1.59e-07  -7.2 4.85e-02    -  1.00e+00 1.00e+00h  1
  25r 2.9379705e+03 9.50e-01 2.56e-08  -7.2 1.63e-02    -  1.00e+00 1.00e+00h  1
  26r 2.9377167e+03 9.50e-01 1.89e-09  -7.2 3.74e-03    -  1.00e+00 1.00e+00h  1
  27r 2.9376976e+03 9.50e-01 1.30e-11  -7.2 2.77e-04    -  1.00e+00 1.00e+00h  1
  28r 2.9366469e+03 9.50e-01 1.35e-06  -9.0 1.64e-02    -  9.73e-01 1.00e+00h  1

Number of Iterations....: 28

                                   (scaled)                 (unscaled)
Objective...............:   5.8731882914136565e+02    2.9365941457068279e+03
Dual infeasibility......:   4.8468425745120089e+02    2.4234212872560047e+03
Constraint violation....:   9.4999999999999996e-01    9.4999999999999996e-01
Complementarity.........:   1.8959731125965712e-09    9.4798655629828550e-09
Overall NLP error.......:   4.8468425745120089e+02    2.4234212872560047e+03


Number of objective function evaluations             = 55
Number of objective gradient evaluations             = 13
Number of equality constraint evaluations            = 55
Number of inequality constraint evaluations          = 55
Number of equality constraint Jacobian evaluations   = 31
Number of inequality constraint Jacobian evaluations = 31
Number of Lagrangian Hessian evaluations             = 29
Total CPU secs in IPOPT (w/o function evaluations)   =      0.282
Total CPU secs in NLP function evaluations           =      0.209

EXIT: Converged to a point of local infeasibility. Problem may be infeasible.
Time to Solution........:1.2807800769805908
